GLPSOL--GLPK LP/MIP Solver 5.0
Parameter(s) specified in the command line:
 --lp ../modeles/3_109.lp --log 3_109.log
Reading problem data from '../modeles/3_109.lp'...
340 rows, 660 columns, 2304 non-zeros
327 integer variables, all of which are binary
1009 lines were read
GLPK Integer Optimizer 5.0
340 rows, 660 columns, 2304 non-zeros
327 integer variables, all of which are binary
Preprocessing...
318 constraint coefficient(s) were reduced
340 rows, 657 columns, 2301 non-zeros
327 integer variables, all of which are binary
Scaling...
 A: min|aij| =  3.367e-04  max|aij| =  4.000e+00  ratio =  1.188e+04
GM: min|aij| =  9.578e-02  max|aij| =  1.044e+01  ratio =  1.090e+02
EQ: min|aij| =  9.174e-03  max|aij| =  1.000e+00  ratio =  1.090e+02
2N: min|aij| =  7.812e-03  max|aij| =  1.725e+00  ratio =  2.208e+02
Constructing initial basis...
Size of triangular part is 340
Solving LP relaxation...
GLPK Simplex Optimizer 5.0
340 rows, 657 columns, 2301 non-zeros
      0: obj =   6.000000000e+00 inf =   1.450e+01 (7)
     26: obj =   4.995370370e-01 inf =   0.000e+00 (0)
*   116: obj =  -1.731436353e+00 inf =   1.733e-15 (0)
OPTIMAL LP SOLUTION FOUND
Integer optimization begins...
Long-step dual simplex will be used
+   116: mip =     not found yet >=              -inf        (1; 0)
+   294: >>>>>  -1.731436353e+00 >=  -1.731436353e+00 < 0.1% (175; 0)
+   294: mip =  -1.731436353e+00 >=     tree is empty   0.0% (0; 349)
INTEGER OPTIMAL SOLUTION FOUND
Time used:   0.1 secs
Memory used: 1.0 Mb (1056971 bytes)
